Minimize
 obj: 0 X_0_1
Subject To
 out_0:
  + 1 X_0_1 + 1 X_0_2 + 1 X_0_3 + 1 X_0_4 + 1 X_0_5 + 1 X_0_6 + 1 X_0_7 + 1 X_0_8
  + 1 X_0_9
  = 1
 in_0:
  + 1 X_1_0 + 1 X_2_0 + 1 X_3_0 + 1 X_4_0 + 1 X_5_0 + 1 X_6_0 + 1 X_7_0 + 1 X_8_0
  + 1 X_9_0
  = 1
 out_1:
  + 1 X_1_0 + 1 X_1_2 + 1 X_1_3 + 1 X_1_4 + 1 X_1_5 + 1 X_1_6 + 1 X_1_7 + 1 X_1_8
  + 1 X_1_9
  = 1
 in_1:
  + 1 X_0_1 + 1 X_2_1 + 1 X_3_1 + 1 X_4_1 + 1 X_5_1 + 1 X_6_1 + 1 X_7_1 + 1 X_8_1
  + 1 X_9_1
  = 1
 out_2:
  + 1 X_2_0 + 1 X_2_1 + 1 X_2_3 + 1 X_2_4 + 1 X_2_5 + 1 X_2_6 + 1 X_2_7 + 1 X_2_8
  + 1 X_2_9
  = 1
 in_2:
  + 1 X_0_2 + 1 X_1_2 + 1 X_3_2 + 1 X_4_2 + 1 X_5_2 + 1 X_6_2 + 1 X_7_2 + 1 X_8_2
  + 1 X_9_2
  = 1
 out_3:
  + 1 X_3_0 + 1 X_3_1 + 1 X_3_2 + 1 X_3_4 + 1 X_3_5 + 1 X_3_6 + 1 X_3_7 + 1 X_3_8
  + 1 X_3_9
  = 1
 in_3:
  + 1 X_0_3 + 1 X_1_3 + 1 X_2_3 + 1 X_4_3 + 1 X_5_3 + 1 X_6_3 + 1 X_7_3 + 1 X_8_3
  + 1 X_9_3
  = 1
 out_4:
  + 1 X_4_0 + 1 X_4_1 + 1 X_4_2 + 1 X_4_3 + 1 X_4_5 + 1 X_4_6 + 1 X_4_7 + 1 X_4_8
  + 1 X_4_9
  = 1
 in_4:
  + 1 X_0_4 + 1 X_1_4 + 1 X_2_4 + 1 X_3_4 + 1 X_5_4 + 1 X_6_4 + 1 X_7_4 + 1 X_8_4
  + 1 X_9_4
  = 1
 out_5:
  + 1 X_5_0 + 1 X_5_1 + 1 X_5_2 + 1 X_5_3 + 1 X_5_4 + 1 X_5_6 + 1 X_5_7 + 1 X_5_8
  + 1 X_5_9
  = 1
 in_5:
  + 1 X_0_5 + 1 X_1_5 + 1 X_2_5 + 1 X_3_5 + 1 X_4_5 + 1 X_6_5 + 1 X_7_5 + 1 X_8_5
  + 1 X_9_5
  = 1
 out_6:
  + 1 X_6_0 + 1 X_6_1 + 1 X_6_2 + 1 X_6_3 + 1 X_6_4 + 1 X_6_5 + 1 X_6_7 + 1 X_6_8
  + 1 X_6_9
  = 1
 in_6:
  + 1 X_0_6 + 1 X_1_6 + 1 X_2_6 + 1 X_3_6 + 1 X_4_6 + 1 X_5_6 + 1 X_7_6 + 1 X_8_6
  + 1 X_9_6
  = 1
 out_7:
  + 1 X_7_0 + 1 X_7_1 + 1 X_7_2 + 1 X_7_3 + 1 X_7_4 + 1 X_7_5 + 1 X_7_6 + 1 X_7_8
  + 1 X_7_9
  = 1
 in_7:
  + 1 X_0_7 + 1 X_1_7 + 1 X_2_7 + 1 X_3_7 + 1 X_4_7 + 1 X_5_7 + 1 X_6_7 + 1 X_8_7
  + 1 X_9_7
  = 1
 out_8:
  + 1 X_8_0 + 1 X_8_1 + 1 X_8_2 + 1 X_8_3 + 1 X_8_4 + 1 X_8_5 + 1 X_8_6 + 1 X_8_7
  + 1 X_8_9
  = 1
 in_8:
  + 1 X_0_8 + 1 X_1_8 + 1 X_2_8 + 1 X_3_8 + 1 X_4_8 + 1 X_5_8 + 1 X_6_8 + 1 X_7_8
  + 1 X_9_8
  = 1
 out_9:
  + 1 X_9_0 + 1 X_9_1 + 1 X_9_2 + 1 X_9_3 + 1 X_9_4 + 1 X_9_5 + 1 X_9_6 + 1 X_9_7
  + 1 X_9_8
  = 1
 in_9:
  + 1 X_0_9 + 1 X_1_9 + 1 X_2_9 + 1 X_3_9 + 1 X_4_9 + 1 X_5_9 + 1 X_6_9 + 1 X_7_9
  + 1 X_8_9
  = 1
 mtz_1_2:
  + 1 U1 - 1 U2 + 9 X_1_2
  <= 8
 mtz_1_3:
  + 1 U1 - 1 U3 + 9 X_1_3
  <= 8
 mtz_1_4:
  + 1 U1 - 1 U4 + 9 X_1_4
  <= 8
 mtz_1_5:
  + 1 U1 - 1 U5 + 9 X_1_5
  <= 8
 mtz_1_6:
  + 1 U1 - 1 U6 + 9 X_1_6
  <= 8
 mtz_1_7:
  + 1 U1 - 1 U7 + 9 X_1_7
  <= 8
 mtz_1_8:
  + 1 U1 - 1 U8 + 9 X_1_8
  <= 8
 mtz_1_9:
  + 1 U1 - 1 U9 + 9 X_1_9
  <= 8
 mtz_2_1:
  + 1 U2 - 1 U1 + 9 X_2_1
  <= 8
 mtz_2_3:
  + 1 U2 - 1 U3 + 9 X_2_3
  <= 8
 mtz_2_4:
  + 1 U2 - 1 U4 + 9 X_2_4
  <= 8
 mtz_2_5:
  + 1 U2 - 1 U5 + 9 X_2_5
  <= 8
 mtz_2_6:
  + 1 U2 - 1 U6 + 9 X_2_6
  <= 8
 mtz_2_7:
  + 1 U2 - 1 U7 + 9 X_2_7
  <= 8
 mtz_2_8:
  + 1 U2 - 1 U8 + 9 X_2_8
  <= 8
 mtz_2_9:
  + 1 U2 - 1 U9 + 9 X_2_9
  <= 8
 mtz_3_1:
  + 1 U3 - 1 U1 + 9 X_3_1
  <= 8
 mtz_3_2:
  + 1 U3 - 1 U2 + 9 X_3_2
  <= 8
 mtz_3_4:
  + 1 U3 - 1 U4 + 9 X_3_4
  <= 8
 mtz_3_5:
  + 1 U3 - 1 U5 + 9 X_3_5
  <= 8
 mtz_3_6:
  + 1 U3 - 1 U6 + 9 X_3_6
  <= 8
 mtz_3_7:
  + 1 U3 - 1 U7 + 9 X_3_7
  <= 8
 mtz_3_8:
  + 1 U3 - 1 U8 + 9 X_3_8
  <= 8
 mtz_3_9:
  + 1 U3 - 1 U9 + 9 X_3_9
  <= 8
 mtz_4_1:
  + 1 U4 - 1 U1 + 9 X_4_1
  <= 8
 mtz_4_2:
  + 1 U4 - 1 U2 + 9 X_4_2
  <= 8
 mtz_4_3:
  + 1 U4 - 1 U3 + 9 X_4_3
  <= 8
 mtz_4_5:
  + 1 U4 - 1 U5 + 9 X_4_5
  <= 8
 mtz_4_6:
  + 1 U4 - 1 U6 + 9 X_4_6
  <= 8
 mtz_4_7:
  + 1 U4 - 1 U7 + 9 X_4_7
  <= 8
 mtz_4_8:
  + 1 U4 - 1 U8 + 9 X_4_8
  <= 8
 mtz_4_9:
  + 1 U4 - 1 U9 + 9 X_4_9
  <= 8
 mtz_5_1:
  + 1 U5 - 1 U1 + 9 X_5_1
  <= 8
 mtz_5_2:
  + 1 U5 - 1 U2 + 9 X_5_2
  <= 8
 mtz_5_3:
  + 1 U5 - 1 U3 + 9 X_5_3
  <= 8
 mtz_5_4:
  + 1 U5 - 1 U4 + 9 X_5_4
  <= 8
 mtz_5_6:
  + 1 U5 - 1 U6 + 9 X_5_6
  <= 8
 mtz_5_7:
  + 1 U5 - 1 U7 + 9 X_5_7
  <= 8
 mtz_5_8:
  + 1 U5 - 1 U8 + 9 X_5_8
  <= 8
 mtz_5_9:
  + 1 U5 - 1 U9 + 9 X_5_9
  <= 8
 mtz_6_1:
  + 1 U6 - 1 U1 + 9 X_6_1
  <= 8
 mtz_6_2:
  + 1 U6 - 1 U2 + 9 X_6_2
  <= 8
 mtz_6_3:
  + 1 U6 - 1 U3 + 9 X_6_3
  <= 8
 mtz_6_4:
  + 1 U6 - 1 U4 + 9 X_6_4
  <= 8
 mtz_6_5:
  + 1 U6 - 1 U5 + 9 X_6_5
  <= 8
 mtz_6_7:
  + 1 U6 - 1 U7 + 9 X_6_7
  <= 8
 mtz_6_8:
  + 1 U6 - 1 U8 + 9 X_6_8
  <= 8
 mtz_6_9:
  + 1 U6 - 1 U9 + 9 X_6_9
  <= 8
 mtz_7_1:
  + 1 U7 - 1 U1 + 9 X_7_1
  <= 8
 mtz_7_2:
  + 1 U7 - 1 U2 + 9 X_7_2
  <= 8
 mtz_7_3:
  + 1 U7 - 1 U3 + 9 X_7_3
  <= 8
 mtz_7_4:
  + 1 U7 - 1 U4 + 9 X_7_4
  <= 8
 mtz_7_5:
  + 1 U7 - 1 U5 + 9 X_7_5
  <= 8
 mtz_7_6:
  + 1 U7 - 1 U6 + 9 X_7_6
  <= 8
 mtz_7_8:
  + 1 U7 - 1 U8 + 9 X_7_8
  <= 8
 mtz_7_9:
  + 1 U7 - 1 U9 + 9 X_7_9
  <= 8
 mtz_8_1:
  + 1 U8 - 1 U1 + 9 X_8_1
  <= 8
 mtz_8_2:
  + 1 U8 - 1 U2 + 9 X_8_2
  <= 8
 mtz_8_3:
  + 1 U8 - 1 U3 + 9 X_8_3
  <= 8
 mtz_8_4:
  + 1 U8 - 1 U4 + 9 X_8_4
  <= 8
 mtz_8_5:
  + 1 U8 - 1 U5 + 9 X_8_5
  <= 8
 mtz_8_6:
  + 1 U8 - 1 U6 + 9 X_8_6
  <= 8
 mtz_8_7:
  + 1 U8 - 1 U7 + 9 X_8_7
  <= 8
 mtz_8_9:
  + 1 U8 - 1 U9 + 9 X_8_9
  <= 8
 mtz_9_1:
  + 1 U9 - 1 U1 + 9 X_9_1
  <= 8
 mtz_9_2:
  + 1 U9 - 1 U2 + 9 X_9_2
  <= 8
 mtz_9_3:
  + 1 U9 - 1 U3 + 9 X_9_3
  <= 8
 mtz_9_4:
  + 1 U9 - 1 U4 + 9 X_9_4
  <= 8
 mtz_9_5:
  + 1 U9 - 1 U5 + 9 X_9_5
  <= 8
 mtz_9_6:
  + 1 U9 - 1 U6 + 9 X_9_6
  <= 8
 mtz_9_7:
  + 1 U9 - 1 U7 + 9 X_9_7
  <= 8
 mtz_9_8:
  + 1 U9 - 1 U8 + 9 X_9_8
  <= 8
 obj1:
  + 801 X_0_1 + 333 X_0_2 + 276 X_0_3 + 290 X_0_4 + 597 X_0_5 + 594 X_0_6 + 645 X_0_7 + 322 X_0_8
  + 114 X_0_9 + 801 X_1_0 + 1039 X_1_2 + 881 X_1_3 + 928 X_1_4 + 469 X_1_5 + 557 X_1_6 + 228 X_1_7
  + 685 X_1_8 + 833 X_1_9 + 333 X_2_0 + 1039 X_2_1 + 564 X_2_3 + 555 X_2_4 + 694 X_2_5 + 925 X_2_6
  + 839 X_2_7 + 655 X_2_8 + 235 X_2_9 + 276 X_3_0 + 881 X_3_1 + 564 X_3_2 + 48 X_3_4 + 812 X_3_5
  + 483 X_3_6 + 787 X_3_7 + 209 X_3_8 + 386 X_3_9 + 290 X_4_0 + 928 X_4_1 + 555 X_4_2 + 48 X_4_3
  + 847 X_4_5 + 528 X_4_6 + 830 X_4_7 + 257 X_4_8 + 394 X_4_9 + 597 X_5_0 + 469 X_5_1 + 694 X_5_2
  + 812 X_5_3 + 847 X_5_4 + 762 X_5_6 + 244 X_5_7 + 694 X_5_8 + 561 X_5_9 + 594 X_6_0 + 557 X_6_1
  + 925 X_6_2 + 483 X_6_3 + 528 X_6_4 + 762 X_6_5 + 596 X_6_7 + 290 X_6_8 + 691 X_6_9 + 645 X_7_0
  + 228 X_7_1 + 839 X_7_2 + 787 X_7_3 + 830 X_7_4 + 244 X_7_5 + 596 X_7_6 + 619 X_7_8 + 652 X_7_9
  + 322 X_8_0 + 685 X_8_1 + 655 X_8_2 + 209 X_8_3 + 257 X_8_4 + 694 X_8_5 + 290 X_8_6 + 619 X_8_7
  + 431 X_8_9 + 114 X_9_0 + 833 X_9_1 + 235 X_9_2 + 386 X_9_3 + 394 X_9_4 + 561 X_9_5 + 691 X_9_6
  + 652 X_9_7 + 431 X_9_8
  <= 1
 obj2:
  + 638 X_0_1 + 97 X_0_2 + 691 X_0_3 + 771 X_0_4 + 735 X_0_5 + 396 X_0_6 + 683 X_0_7 + 125 X_0_8
  + 703 X_0_9 + 638 X_1_0 + 705 X_1_2 + 75 X_1_3 + 242 X_1_4 + 456 X_1_5 + 438 X_1_6 + 591 X_1_7
  + 759 X_1_8 + 523 X_1_9 + 97 X_2_0 + 705 X_2_1 + 752 X_2_3 + 815 X_2_4 + 831 X_2_5 + 493 X_2_6
  + 781 X_2_7 + 71 X_2_8 + 800 X_2_9 + 691 X_3_0 + 75 X_3_1 + 752 X_3_2 + 172 X_3_4 + 519 X_3_5
  + 513 X_3_6 + 662 X_3_7 + 810 X_3_8 + 592 X_3_9 + 771 X_4_0 + 242 X_4_1 + 815 X_4_2 + 172 X_4_3
  + 691 X_4_5 + 663 X_4_6 + 833 X_4_7 + 880 X_4_8 + 764 X_4_9 + 735 X_5_0 + 456 X_5_1 + 831 X_5_2
  + 519 X_5_3 + 691 X_5_4 + 341 X_5_6 + 192 X_5_7 + 851 X_5_8 + 101 X_5_9 + 396 X_6_0 + 438 X_6_1
  + 493 X_6_2 + 513 X_6_3 + 663 X_6_4 + 341 X_6_5 + 301 X_6_7 + 510 X_6_8 + 307 X_6_9 + 683 X_7_0
  + 591 X_7_1 + 781 X_7_2 + 662 X_7_3 + 833 X_7_4 + 192 X_7_5 + 301 X_7_6 + 785 X_7_8 + 91 X_7_9
  + 125 X_8_0 + 759 X_8_1 + 71 X_8_2 + 810 X_8_3 + 880 X_8_4 + 851 X_8_5 + 510 X_8_6 + 785 X_8_7
  + 812 X_8_9 + 703 X_9_0 + 523 X_9_1 + 800 X_9_2 + 592 X_9_3 + 764 X_9_4 + 101 X_9_5 + 307 X_9_6
  + 91 X_9_7 + 812 X_9_8
  <= 2
 obj3:
  + 726 X_0_1 + 199 X_0_2 + 591 X_0_3 + 484 X_0_4 + 395 X_0_5 + 895 X_0_6 + 708 X_0_7 + 832 X_0_8
  + 815 X_0_9 + 726 X_1_0 + 574 X_1_2 + 543 X_1_3 + 633 X_1_4 + 335 X_1_5 + 551 X_1_6 + 820 X_1_7
  + 352 X_1_8 + 1112 X_1_9 + 199 X_2_0 + 574 X_2_1 + 598 X_2_3 + 536 X_2_4 + 275 X_2_5 + 857 X_2_6
  + 783 X_2_7 + 752 X_2_8 + 949 X_2_9 + 591 X_3_0 + 543 X_3_1 + 598 X_3_2 + 152 X_3_4 + 398 X_3_5
  + 326 X_3_6 + 277 X_3_7 + 364 X_3_8 + 574 X_3_9 + 484 X_4_0 + 633 X_4_1 + 536 X_4_2 + 152 X_4_3
  + 405 X_4_5 + 476 X_4_6 + 249 X_4_7 + 510 X_4_8 + 487 X_4_9 + 395 X_5_0 + 335 X_5_1 + 275 X_5_2
  + 398 X_5_3 + 405 X_5_4 + 601 X_5_6 + 645 X_5_7 + 478 X_5_8 + 886 X_5_9 + 895 X_6_0 + 551 X_6_1
  + 857 X_6_2 + 326 X_6_3 + 476 X_6_4 + 601 X_6_5 + 474 X_6_7 + 205 X_6_8 + 783 X_6_9 + 708 X_7_0
  + 820 X_7_1 + 783 X_7_2 + 277 X_7_3 + 249 X_7_4 + 645 X_7_5 + 474 X_7_6 + 598 X_7_8 + 314 X_7_9
  + 832 X_8_0 + 352 X_8_1 + 752 X_8_2 + 364 X_8_3 + 510 X_8_4 + 478 X_8_5 + 205 X_8_6 + 598 X_8_7
  + 912 X_8_9 + 815 X_9_0 + 1112 X_9_1 + 949 X_9_2 + 574 X_9_3 + 487 X_9_4 + 886 X_9_5 + 783 X_9_6
  + 314 X_9_7 + 912 X_9_8
  <= 3
 obj4:
  + 273 X_0_1 + 492 X_0_2 + 288 X_0_3 + 421 X_0_4 + 772 X_0_5 + 582 X_0_6 + 561 X_0_7 + 98 X_0_8
  + 217 X_0_9 + 273 X_1_0 + 360 X_1_2 + 154 X_1_3 + 231 X_1_4 + 526 X_1_5 + 359 X_1_6 + 433 X_1_7
  + 275 X_1_8 + 371 X_1_9 + 492 X_2_0 + 360 X_2_1 + 223 X_2_3 + 567 X_2_4 + 388 X_2_5 + 641 X_2_6
  + 74 X_2_7 + 556 X_2_8 + 396 X_2_9 + 288 X_3_0 + 154 X_3_1 + 223 X_3_2 + 384 X_3_4 + 492 X_3_5
  + 496 X_3_6 + 297 X_3_7 + 339 X_3_8 + 282 X_3_9 + 421 X_4_0 + 231 X_4_1 + 567 X_4_2 + 384 X_4_3
  + 605 X_4_5 + 164 X_4_6 + 636 X_4_7 + 367 X_4_8 + 581 X_4_9 + 772 X_5_0 + 526 X_5_1 + 388 X_5_2
  + 492 X_5_3 + 605 X_5_4 + 573 X_5_6 + 383 X_5_7 + 799 X_5_8 + 754 X_5_9 + 582 X_6_0 + 359 X_6_1
  + 641 X_6_2 + 496 X_6_3 + 164 X_6_4 + 573 X_6_5 + 701 X_6_7 + 531 X_6_8 + 727 X_6_9 + 561 X_7_0
  + 433 X_7_1 + 74 X_7_2 + 297 X_7_3 + 636 X_7_4 + 383 X_7_5 + 701 X_7_6 + 629 X_7_8 + 450 X_7_9
  + 98 X_8_0 + 275 X_8_1 + 556 X_8_2 + 339 X_8_3 + 367 X_8_4 + 799 X_8_5 + 531 X_8_6 + 629 X_8_7
  + 315 X_8_9 + 217 X_9_0 + 371 X_9_1 + 396 X_9_2 + 282 X_9_3 + 581 X_9_4 + 754 X_9_5 + 727 X_9_6
  + 450 X_9_7 + 315 X_9_8
  <= 4
 obj5:
  + 746 X_0_1 + 765 X_0_2 + 696 X_0_3 + 508 X_0_4 + 322 X_0_5 + 273 X_0_6 + 333 X_0_7 + 922 X_0_8
  + 224 X_0_9 + 746 X_1_0 + 314 X_1_2 + 576 X_1_3 + 238 X_1_4 + 751 X_1_5 + 953 X_1_6 + 710 X_1_7
  + 1085 X_1_8 + 696 X_1_9 + 765 X_2_0 + 314 X_2_1 + 299 X_2_3 + 363 X_2_4 + 635 X_2_5 + 890 X_2_6
  + 589 X_2_7 + 809 X_2_8 + 625 X_2_9 + 696 X_3_0 + 576 X_3_1 + 299 X_3_2 + 507 X_3_4 + 454 X_3_5
  + 727 X_3_6 + 414 X_3_7 + 513 X_3_8 + 495 X_3_9 + 508 X_4_0 + 238 X_4_1 + 363 X_4_2 + 507 X_4_3
  + 543 X_4_5 + 720 X_4_6 + 505 X_4_7 + 973 X_4_8 + 473 X_4_9 + 322 X_5_0 + 751 X_5_1 + 635 X_5_2
  + 454 X_5_3 + 543 X_5_4 + 273 X_5_6 + 45 X_5_7 + 600 X_5_8 + 108 X_5_9 + 273 X_6_0 + 953 X_6_1
  + 890 X_6_2 + 727 X_6_3 + 720 X_6_4 + 273 X_6_5 + 315 X_6_7 + 783 X_6_8 + 266 X_6_9 + 333 X_7_0
  + 710 X_7_1 + 589 X_7_2 + 414 X_7_3 + 505 X_7_4 + 45 X_7_5 + 315 X_7_6 + 596 X_7_8 + 109 X_7_9
  + 922 X_8_0 + 1085 X_8_1 + 809 X_8_2 + 513 X_8_3 + 973 X_8_4 + 600 X_8_5 + 783 X_8_6 + 596 X_8_7
  + 704 X_8_9 + 224 X_9_0 + 696 X_9_1 + 625 X_9_2 + 495 X_9_3 + 473 X_9_4 + 108 X_9_5 + 266 X_9_6
  + 109 X_9_7 + 704 X_9_8
  <= 5
 obj6:
  + 663 X_0_1 + 397 X_0_2 + 522 X_0_3 + 285 X_0_4 + 492 X_0_5 + 287 X_0_6 + 680 X_0_7 + 365 X_0_8
  + 145 X_0_9 + 663 X_1_0 + 499 X_1_2 + 578 X_1_3 + 554 X_1_4 + 1150 X_1_5 + 820 X_1_6 + 785 X_1_7
  + 302 X_1_8 + 566 X_1_9 + 397 X_2_0 + 499 X_2_1 + 141 X_2_3 + 120 X_2_4 + 775 X_2_5 + 677 X_2_6
  + 350 X_2_7 + 281 X_2_8 + 253 X_2_9 + 522 X_3_0 + 578 X_3_1 + 141 X_3_2 + 237 X_3_4 + 844 X_3_5
  + 807 X_3_6 + 219 X_3_7 + 409 X_3_8 + 382 X_3_9 + 285 X_4_0 + 554 X_4_1 + 120 X_4_2 + 237 X_4_3
  + 661 X_4_5 + 570 X_4_6 + 414 X_4_7 + 284 X_4_8 + 145 X_4_9 + 492 X_5_0 + 1150 X_5_1 + 775 X_5_2
  + 844 X_5_3 + 661 X_5_4 + 513 X_5_6 + 893 X_5_7 + 849 X_5_8 + 589 X_5_9 + 287 X_6_0 + 820 X_6_1
  + 677 X_6_2 + 807 X_6_3 + 570 X_6_4 + 513 X_6_5 + 968 X_6_7 + 563 X_6_8 + 425 X_6_9 + 680 X_7_0
  + 785 X_7_1 + 350 X_7_2 + 219 X_7_3 + 414 X_7_4 + 893 X_7_5 + 968 X_7_6 + 627 X_7_8 + 556 X_7_9
  + 365 X_8_0 + 302 X_8_1 + 281 X_8_2 + 409 X_8_3 + 284 X_8_4 + 849 X_8_5 + 563 X_8_6 + 627 X_8_7
  + 265 X_8_9 + 145 X_9_0 + 566 X_9_1 + 253 X_9_2 + 382 X_9_3 + 145 X_9_4 + 589 X_9_5 + 425 X_9_6
  + 556 X_9_7 + 265 X_9_8
  <= 6
Bounds
 1 <= U1 <= 9
 1 <= U2 <= 9
 1 <= U3 <= 9
 1 <= U4 <= 9
 1 <= U5 <= 9
 1 <= U6 <= 9
 1 <= U7 <= 9
 1 <= U8 <= 9
 1 <= U9 <= 9
Binary
 X_0_1
 X_0_2
 X_0_3
 X_0_4
 X_0_5
 X_0_6
 X_0_7
 X_0_8
 X_0_9
 X_1_0
 X_1_2
 X_1_3
 X_1_4
 X_1_5
 X_1_6
 X_1_7
 X_1_8
 X_1_9
 X_2_0
 X_2_1
 X_2_3
 X_2_4
 X_2_5
 X_2_6
 X_2_7
 X_2_8
 X_2_9
 X_3_0
 X_3_1
 X_3_2
 X_3_4
 X_3_5
 X_3_6
 X_3_7
 X_3_8
 X_3_9
 X_4_0
 X_4_1
 X_4_2
 X_4_3
 X_4_5
 X_4_6
 X_4_7
 X_4_8
 X_4_9
 X_5_0
 X_5_1
 X_5_2
 X_5_3
 X_5_4
 X_5_6
 X_5_7
 X_5_8
 X_5_9
 X_6_0
 X_6_1
 X_6_2
 X_6_3
 X_6_4
 X_6_5
 X_6_7
 X_6_8
 X_6_9
 X_7_0
 X_7_1
 X_7_2
 X_7_3
 X_7_4
 X_7_5
 X_7_6
 X_7_8
 X_7_9
 X_8_0
 X_8_1
 X_8_2
 X_8_3
 X_8_4
 X_8_5
 X_8_6
 X_8_7
 X_8_9
 X_9_0
 X_9_1
 X_9_2
 X_9_3
 X_9_4
 X_9_5
 X_9_6
 X_9_7
 X_9_8
End
